c Output_time 26.03.2020 18:13:14_+0100 1585242794378233062
c ** Program information **
c program_name                          "QBRG_debug"
c version                               "0.3.20"
c date                                  "25.3.2020"
c gid_id                                "673970833836058123f633335630c185360d632e"
c author                                "Oliver Kullmann"
c url                                   "https://github.com/OKullmann/oklibrary/blob/master/Satisfiability/Transformers/Generators/Random/QBRG.cpp"
c ** Machine information **
c machine_name                          "chyna-Lenovo-G50-70"
c bogomips                              3791.08
c ** Compilation information **
c compiler_version                      "g++ 7.5.0"
c compilation_date                      "Mar_26_2020 11:16:30"
c compilation_options                   "--std=c++17 -pedantic -fmax-errors=5 -Wall -Wextra -g -D_GLIBCXX_DEBUG"
c NDEBUG                                0
c OPTIMIZE                              0
c ** Parameters **
c command-line                          "./QBRG_debug" "e40 a40 40" "307*1,1|2-2,1|3-3,1" "" "1,t" ""
c output                                "QuBlRaGe_120_307_1585242794296034613.qdimacs"
c options                               "filtered,renamed"
c num_quantifier_blocks                 3
c  quantifier_blocks                    1:e1-40 2:a41-80 3:e81-120
c num_clause-blocks                     1
c  clause-blocks                        307 * {1-40,1,1/2} | {41-80,1,1/2} | {81-120,1,1/2}
c num_e-seeds                           30+2=32
c  e-seeds                              1 0 1 0 4 120 2 40 1 40 0 40 1 307 3 1 1 1 1 2 2 2 1 1 2 3 3 1 1 2 1 1585242794296034028
p cnf 120 307
e 1 2 3 4 5 6 7 8 9 10 11 12 13 14 15 16 17 18 19 20 21 22 23 24 25 26 27 28 29 30 31 32 33 34 35 36 37 38 39 40 0
a 41 42 43 44 45 46 47 48 49 50 51 52 53 54 55 56 57 58 59 60 61 62 63 64 65 66 67 68 69 70 71 72 73 74 75 76 77 78 79 80 0
e 81 82 83 84 85 86 87 88 89 90 91 92 93 94 95 96 97 98 99 100 101 102 103 104 105 106 107 108 109 110 111 112 113 114 115 116 117 118 119 120 0
37 41 -81 0
39 -49 -81 0
-3 50 -81 0
19 51 -81 0
37 51 -81 0
1 -54 -81 0
-40 57 -81 0
-29 -68 -81 0
10 71 -81 0
31 -76 -81 0
-17 -59 81 0
38 60 81 0
-25 -61 81 0
-17 66 81 0
2 -51 -82 0
-31 -76 -82 0
-36 58 82 0
18 54 -83 0
2 55 -83 0
-22 72 -83 0
-3 75 -83 0
-1 -45 83 0
-19 48 83 0
5 -49 83 0
-36 -52 83 0
14 73 83 0
35 50 -84 0
-20 -65 -84 0
-25 67 -84 0
30 68 -84 0
31 -72 -84 0
-28 79 -84 0
22 80 -84 0
28 -70 84 0
-32 71 84 0
-23 72 84 0
34 -42 -85 0
-31 53 -85 0
-19 -54 -85 0
37 -55 -85 0
-19 78 -85 0
-11 45 85 0
37 -51 85 0
40 -59 85 0
19 66 85 0
-10 64 -86 0
-7 66 -86 0
24 -71 -86 0
2 63 86 0
35 -71 86 0
24 71 86 0
-37 75 86 0
-23 79 86 0
12 44 -87 0
-33 57 -87 0
-7 -42 87 0
15 -42 87 0
-39 51 87 0
15 54 87 0
-37 -70 87 0
-38 -70 87 0
-15 -59 -88 0
-37 73 -88 0
-22 -80 -88 0
32 42 88 0
5 -67 88 0
19 70 88 0
-27 72 88 0
25 76 88 0
25 -51 -89 0
-10 -56 -89 0
14 61 -89 0
21 -72 -89 0
38 -42 89 0
13 -47 89 0
-40 -78 89 0
1 80 89 0
23 -66 -90 0
-28 46 90 0
37 -53 90 0
7 -60 90 0
40 -63 90 0
9 -73 90 0
29 -49 -91 0
-27 -54 -91 0
32 54 -91 0
9 -61 -91 0
36 67 -91 0
28 -57 91 0
-40 -76 91 0
-32 -51 -92 0
14 -54 -92 0
23 54 -92 0
36 -76 -92 0
5 72 92 0
15 42 -93 0
9 46 -93 0
25 57 -93 0
-14 -59 -93 0
-18 63 -93 0
4 -56 93 0
38 -71 93 0
-39 69 94 0
5 -72 94 0
-17 -75 -95 0
22 -43 95 0
-13 45 95 0
39 58 95 0
-18 -67 95 0
-35 64 -96 0
16 -67 -96 0
22 -75 -96 0
25 42 96 0
-27 -65 96 0
-13 80 96 0
-17 44 -97 0
10 58 -97 0
22 -56 97 0
20 -60 97 0
39 64 97 0
-4 50 98 0
38 56 98 0
39 58 98 0
19 65 98 0
-6 -47 -99 0
12 54 -99 0
-15 72 -99 0
-16 -79 -99 0
-38 -44 99 0
-6 44 99 0
-9 -45 99 0
-7 49 99 0
-31 -48 -100 0
-4 53 -100 0
12 -59 -100 0
31 -52 100 0
-3 51 -101 0
40 61 -101 0
-4 75 -101 0
33 49 101 0
2 -54 101 0
-24 -59 101 0
33 76 101 0
37 -46 -102 0
-4 -51 -102 0
39 -59 -102 0
-36 -61 -102 0
1 -43 102 0
-15 44 102 0
27 45 102 0
-37 45 102 0
38 -55 102 0
40 57 102 0
-16 -60 102 0
-37 -64 102 0
-39 64 102 0
-6 54 -103 0
-14 54 -103 0
-8 57 103 0
-11 71 103 0
-27 73 -104 0
-17 -75 -104 0
-3 79 -104 0
-8 46 104 0
28 50 104 0
-10 53 104 0
-13 54 104 0
14 67 104 0
32 68 104 0
37 77 104 0
-16 -80 104 0
-3 48 -105 0
-40 56 -105 0
12 64 -105 0
10 65 -105 0
-16 69 -105 0
-2 71 -105 0
4 54 105 0
29 -60 105 0
-6 78 105 0
-16 79 105 0
-17 80 105 0
10 -50 -106 0
4 -54 -106 0
32 -58 -106 0
24 62 -106 0
-35 64 -106 0
-14 70 -106 0
-20 70 -106 0
35 -78 -106 0
-23 -55 106 0
13 -56 106 0
19 41 -107 0
-31 -42 -107 0
3 46 -107 0
11 -53 -107 0
-30 48 107 0
38 52 107 0
-8 -80 107 0
-38 -45 -108 0
-11 46 -108 0
15 -73 -108 0
29 -54 108 0
-20 68 108 0
26 -74 108 0
-26 76 108 0
-5 80 108 0
20 43 -109 0
33 -45 -109 0
-24 47 -109 0
35 -51 -109 0
-26 51 -109 0
32 59 -109 0
11 74 -109 0
-5 52 109 0
23 61 109 0
9 -67 109 0
8 -70 109 0
-21 52 -110 0
-23 -66 -110 0
12 -60 110 0
28 67 110 0
-18 -74 110 0
28 -45 -111 0
36 -62 -111 0
34 63 -111 0
-32 -66 -111 0
-6 72 -111 0
7 -77 -111 0
34 78 -111 0
9 -52 111 0
-12 65 111 0
-34 65 111 0
2 69 111 0
-9 43 -112 0
-19 58 -112 0
-29 -60 -112 0
-8 60 -112 0
22 -80 -112 0
-12 -43 112 0
23 -47 112 0
-26 -49 112 0
12 -65 112 0
-30 77 112 0
-26 -45 -113 0
-10 -48 -113 0
-12 48 -113 0
40 -52 -113 0
11 55 -113 0
-12 71 -113 0
31 -46 113 0
-38 -46 113 0
27 53 113 0
-28 57 113 0
9 -59 113 0
2 60 113 0
37 -61 113 0
24 -65 113 0
-28 -67 113 0
1 -71 113 0
-6 77 113 0
9 56 -114 0
17 -64 -114 0
-1 68 -114 0
9 77 -114 0
29 -80 -114 0
36 46 114 0
-32 50 114 0
-38 58 114 0
1 57 -115 0
34 -72 -115 0
39 61 115 0
31 -67 115 0
2 69 115 0
-3 -73 115 0
39 -45 -116 0
-5 -60 -116 0
4 77 -116 0
-33 -78 -116 0
-27 78 -116 0
39 -56 116 0
40 61 116 0
-3 -64 116 0
28 78 116 0
17 -75 -117 0
3 -51 117 0
-1 73 117 0
-19 76 -118 0
-29 -58 118 0
-40 -67 118 0
-17 -41 -119 0
-11 60 -119 0
23 72 -119 0
-24 47 119 0
31 -64 119 0
10 67 119 0
30 -70 119 0
27 -76 119 0
-16 -77 119 0
18 52 -120 0
-18 55 -120 0
38 -58 -120 0
23 -78 -120 0
-2 54 120 0
-28 55 120 0
2 -71 120 0
-16 77 120 0
